% seed = 1200839

mint = 55;
% maxt = 230;

nActs = 42;
dur = [0,7,6,4,7,4,5,6,9,4,10,4,3,4,9,6,6,10,7,1,7,7,3,5,4,10,6,1,1,10,3,8,1,5,7,5,9,6,9,1,10,0];

nSkills = 4;
sreq = [| 0,0,0,0,
	| 5,0,7,0,
	| 0,4,0,5,
	| 0,3,3,0,
	| 0,0,3,2,
	| 0,3,0,7,
	| 3,0,5,0,
	| 3,4,0,0,
	| 3,0,0,4,
	| 5,2,0,0,
	| 0,2,3,0,
	| 2,4,0,0,
	| 0,3,0,5,
	| 0,5,4,0,
	| 4,1,0,0,
	| 5,0,0,4,
	| 3,0,4,0,
	| 4,0,0,7,
	| 0,0,4,2,
	| 6,0,3,0,
	| 0,3,0,3,
	| 5,2,0,0,
	| 0,0,2,3,
	| 4,5,0,0,
	| 2,0,2,0,
	| 6,5,0,0,
	| 0,4,3,0,
	| 5,3,0,0,
	| 5,0,2,0,
	| 3,4,0,0,
	| 1,0,6,0,
	| 0,0,4,3,
	| 4,0,4,0,
	| 0,0,7,1,
	| 0,5,0,6,
	| 5,0,5,0,
	| 0,6,7,0,
	| 3,0,6,0,
	| 0,0,4,4,
	| 4,0,0,7,
	| 0,4,0,7,
	| 0,0,0,0, |];

nResources = 20;
mastery = [| true,false,true,true,
	| false,true,true,true,
	| false,true,false,false,
	| true,true,false,false,
	| false,true,true,false,
	| true,true,false,true,
	| true,true,true,false,
	| false,true,false,false,
	| false,true,false,false,
	| false,false,false,true,
	| false,true,true,false,
	| true,false,true,false,
	| false,true,true,false,
	| false,false,false,true,
	| false,false,false,true,
	| false,false,false,true,
	| false,true,true,false,
	| false,true,true,false,
	| true,true,false,false,
	| false,true,false,false, |];

nPrecs = 61;
pred = [1,1,1,2,2,2,3,3,3,4,5,5,5,6,6,6,7,7,8,9,10,10,10,11,11,11,12,12,12,13,13,14,15,16,17,17,18,19,20,21,22,23,23,24,25,26,27,28,29,30,31,32,33,34,35,36,37,38,39,40,41];
succ = [2,3,4,12,5,6,9,15,8,32,18,20,39,10,11,7,27,28,23,33,40,22,16,25,35,30,21,13,14,17,28,19,37,19,25,38,27,36,29,31,39,37,24,26,26,34,29,29,35,41,34,36,34,36,38,37,40,40,42,42,42];

nUnrels = 558;
unpred = [2,2,2,2,2,2,2,2,2,3,3,3,3,3,3,3,3,3,3,3,3,3,3,3,3,3,3,3,3,3,3,3,3,3,3,3,4,4,4,4,4,4,4,4,4,4,4,4,4,4,4,4,4,4,4,4,4,4,4,4,4,4,4,4,4,4,4,4,4,5,5,5,5,5,5,5,5,5,5,5,5,5,5,5,5,5,5,5,5,5,5,5,5,5,5,5,5,6,6,6,6,6,6,6,6,6,6,6,6,6,6,6,7,7,7,7,7,7,7,7,7,7,7,7,7,7,7,7,7,7,7,7,7,7,7,7,7,7,7,7,8,8,8,8,8,8,8,8,8,8,8,8,8,8,8,8,8,8,8,8,8,8,8,8,8,8,9,9,9,9,9,9,9,9,9,9,9,9,9,9,9,9,9,9,9,9,9,9,9,9,9,9,9,10,10,10,10,10,10,10,10,10,10,10,10,10,10,10,10,10,10,10,10,10,10,10,10,11,11,11,11,11,11,11,11,11,11,11,11,11,11,11,11,11,11,11,11,12,12,12,12,12,12,12,12,12,12,12,12,12,13,13,13,13,13,13,13,13,13,13,13,13,13,13,13,13,13,14,14,14,14,14,14,14,14,14,14,14,14,14,14,14,14,14,14,14,14,14,14,14,15,15,15,15,15,15,15,15,15,15,15,15,15,15,15,15,15,15,15,15,15,15,15,15,16,16,16,16,16,16,16,16,16,16,16,16,16,16,16,16,16,16,16,16,16,17,17,17,17,17,17,17,17,17,17,17,17,17,17,17,17,17,18,18,18,18,18,18,18,18,18,18,18,18,18,18,18,18,18,18,19,19,19,19,19,19,19,19,19,19,19,19,19,19,19,19,19,19,19,20,20,20,20,20,20,20,20,20,20,20,20,20,20,20,20,20,21,21,21,21,21,21,21,21,21,21,21,21,21,21,21,22,22,22,22,22,22,22,22,22,22,22,22,22,22,22,22,22,22,23,23,23,23,23,23,23,23,23,23,23,23,24,24,24,24,24,24,24,24,24,24,24,24,25,25,25,25,25,25,25,25,25,25,25,26,26,26,26,26,26,26,26,26,26,26,27,27,27,27,27,27,27,27,27,27,28,28,28,28,28,28,28,28,28,29,29,29,29,29,29,29,29,29,30,30,30,30,30,30,30,30,30,30,31,31,31,31,31,31,32,32,32,32,32,32,33,33,33,33,34,34,34,34,35,35,35,35,36,36,36,37,37,37,38,38,39,39,40];
unsucc = [3,4,8,9,15,23,24,32,33,4,5,6,7,10,11,12,13,14,16,17,18,19,20,21,22,25,27,28,29,30,31,32,35,38,39,41,5,6,7,8,9,10,11,12,13,14,15,16,17,18,19,20,21,22,23,24,25,26,27,28,29,30,31,33,34,35,38,39,41,6,7,8,9,10,11,12,13,14,15,16,17,19,21,22,23,24,25,26,28,30,31,32,33,34,36,37,41,8,9,12,13,14,15,17,18,20,21,23,24,31,32,33,8,9,10,11,12,13,14,15,16,17,18,19,20,21,22,23,24,25,26,30,31,32,33,34,36,37,39,41,9,10,11,12,13,14,15,16,17,18,19,20,21,22,25,27,28,29,30,31,32,33,35,38,39,41,10,11,12,13,14,15,16,17,18,19,20,21,22,23,24,25,26,27,28,29,30,31,32,35,38,39,41,11,12,13,14,15,17,18,20,21,23,24,25,26,27,28,29,30,31,32,33,34,35,38,41,12,13,14,15,16,17,18,19,20,21,22,23,24,27,28,29,31,32,33,39,15,16,18,20,22,23,24,27,30,32,33,39,41,14,15,16,18,19,20,21,22,23,24,27,30,31,32,33,39,41,15,16,17,18,20,21,22,23,24,25,26,27,28,29,30,31,32,33,34,35,38,39,41,16,17,18,19,20,21,22,23,24,25,26,27,28,29,30,31,32,33,34,35,36,38,39,41,17,18,20,21,22,23,24,25,26,27,28,29,30,31,32,33,34,35,38,39,41,18,19,20,21,22,23,24,27,28,29,30,31,32,33,35,39,41,19,20,21,22,23,24,25,26,28,30,31,32,33,34,36,37,39,41,20,21,22,23,24,25,26,27,28,29,30,31,32,33,34,35,38,39,41,21,22,23,24,25,26,27,28,30,31,32,33,34,36,37,39,41,22,23,24,25,26,27,28,29,30,32,33,35,38,39,41,23,24,25,26,27,28,29,30,31,32,33,34,35,36,37,38,40,41,25,27,28,29,30,31,32,33,35,38,39,41,25,27,28,29,30,31,32,33,35,38,39,41,27,28,29,30,31,32,33,35,38,39,41,27,28,29,30,31,32,33,35,38,39,41,28,30,31,32,33,34,36,37,39,41,30,31,32,33,34,36,37,39,41,30,31,32,33,34,36,37,39,41,31,32,33,34,35,36,37,38,39,40,32,33,35,38,39,41,33,34,35,38,39,41,35,38,39,41,35,38,39,41,36,37,39,41,38,39,41,38,39,41,39,41,40,41,41];

USEFUL_RES = [{},
	{1,2,4,5,6,7,11,12,13,17,18,19},
	{1,2,3,4,5,6,7,8,9,10,11,13,14,15,16,17,18,19,20},
	{1,2,3,4,5,6,7,8,9,11,12,13,17,18,19,20},
	{1,2,5,6,7,10,11,12,13,14,15,16,17,18},
	{1,2,3,4,5,6,7,8,9,10,11,13,14,15,16,17,18,19,20},
	{1,2,4,5,6,7,11,12,13,17,18,19},
	{1,2,3,4,5,6,7,8,9,11,12,13,17,18,19,20},
	{1,2,4,6,7,10,12,14,15,16,19},
	{1,2,3,4,5,6,7,8,9,11,12,13,17,18,19,20},
	{1,2,3,4,5,6,7,8,9,11,12,13,17,18,19,20},
	{1,2,3,4,5,6,7,8,9,11,12,13,17,18,19,20},
	{1,2,3,4,5,6,7,8,9,10,11,13,14,15,16,17,18,19,20},
	{1,2,3,4,5,6,7,8,9,11,12,13,17,18,19,20},
	{1,2,3,4,5,6,7,8,9,11,12,13,17,18,19,20},
	{1,2,4,6,7,10,12,14,15,16,19},
	{1,2,4,5,6,7,11,12,13,17,18,19},
	{1,2,4,6,7,10,12,14,15,16,19},
	{1,2,5,6,7,10,11,12,13,14,15,16,17,18},
	{1,2,4,5,6,7,11,12,13,17,18,19},
	{1,2,3,4,5,6,7,8,9,10,11,13,14,15,16,17,18,19,20},
	{1,2,3,4,5,6,7,8,9,11,12,13,17,18,19,20},
	{1,2,5,6,7,10,11,12,13,14,15,16,17,18},
	{1,2,3,4,5,6,7,8,9,11,12,13,17,18,19,20},
	{1,2,4,5,6,7,11,12,13,17,18,19},
	{1,2,3,4,5,6,7,8,9,11,12,13,17,18,19,20},
	{1,2,3,4,5,6,7,8,9,11,12,13,17,18,19,20},
	{1,2,3,4,5,6,7,8,9,11,12,13,17,18,19,20},
	{1,2,4,5,6,7,11,12,13,17,18,19},
	{1,2,3,4,5,6,7,8,9,11,12,13,17,18,19,20},
	{1,2,4,5,6,7,11,12,13,17,18,19},
	{1,2,5,6,7,10,11,12,13,14,15,16,17,18},
	{1,2,4,5,6,7,11,12,13,17,18,19},
	{1,2,5,6,7,10,11,12,13,14,15,16,17,18},
	{1,2,3,4,5,6,7,8,9,10,11,13,14,15,16,17,18,19,20},
	{1,2,4,5,6,7,11,12,13,17,18,19},
	{1,2,3,4,5,6,7,8,9,11,12,13,17,18,19,20},
	{1,2,4,5,6,7,11,12,13,17,18,19},
	{1,2,5,6,7,10,11,12,13,14,15,16,17,18},
	{1,2,4,6,7,10,12,14,15,16,19},
	{1,2,3,4,5,6,7,8,9,10,11,13,14,15,16,17,18,19,20},
	{}];

POTENTIAL_ACT = [{2,3,4,5,6,7,8,9,10,11,12,13,14,15,16,17,18,19,20,21,22,23,24,25,26,27,28,29,30,31,32,33,34,35,36,37,38,39,40,41},
	{2,3,4,5,6,7,8,9,10,11,12,13,14,15,16,17,18,19,20,21,22,23,24,25,26,27,28,29,30,31,32,33,34,35,36,37,38,39,40,41},
	{3,4,6,8,10,11,12,13,14,15,21,22,24,26,27,28,30,35,37,41},
	{2,3,4,6,7,8,9,10,11,12,13,14,15,16,17,18,20,21,22,24,25,26,27,28,29,30,31,33,35,36,37,38,40,41},
	{2,3,4,5,6,7,8,10,11,12,13,14,15,17,19,20,21,22,23,24,25,26,27,28,29,30,31,32,33,34,35,36,37,38,39,41},
	{2,3,4,5,6,7,8,9,10,11,12,13,14,15,16,17,18,19,20,21,22,23,24,25,26,27,28,29,30,31,32,33,34,35,36,37,38,39,40,41},
	{2,3,4,5,6,7,8,9,10,11,12,13,14,15,16,17,18,19,20,21,22,23,24,25,26,27,28,29,30,31,32,33,34,35,36,37,38,39,40,41},
	{3,4,6,8,10,11,12,13,14,15,21,22,24,26,27,28,30,35,37,41},
	{3,4,6,8,10,11,12,13,14,15,21,22,24,26,27,28,30,35,37,41},
	{3,5,6,9,13,16,18,19,21,23,32,34,35,39,40,41},
	{2,3,4,5,6,7,8,10,11,12,13,14,15,17,19,20,21,22,23,24,25,26,27,28,29,30,31,32,33,34,35,36,37,38,39,41},
	{2,4,5,7,8,9,10,11,12,14,15,16,17,18,19,20,22,23,24,25,26,27,28,29,30,31,32,33,34,36,37,38,39,40},
	{2,3,4,5,6,7,8,10,11,12,13,14,15,17,19,20,21,22,23,24,25,26,27,28,29,30,31,32,33,34,35,36,37,38,39,41},
	{3,5,6,9,13,16,18,19,21,23,32,34,35,39,40,41},
	{3,5,6,9,13,16,18,19,21,23,32,34,35,39,40,41},
	{3,5,6,9,13,16,18,19,21,23,32,34,35,39,40,41},
	{2,3,4,5,6,7,8,10,11,12,13,14,15,17,19,20,21,22,23,24,25,26,27,28,29,30,31,32,33,34,35,36,37,38,39,41},
	{2,3,4,5,6,7,8,10,11,12,13,14,15,17,19,20,21,22,23,24,25,26,27,28,29,30,31,32,33,34,35,36,37,38,39,41},
	{2,3,4,6,7,8,9,10,11,12,13,14,15,16,17,18,20,21,22,24,25,26,27,28,29,30,31,33,35,36,37,38,40,41},
	{3,4,6,8,10,11,12,13,14,15,21,22,24,26,27,28,30,35,37,41}];
